[runlim] version:		1.10
[runlim] time limit:		311040000 seconds
[runlim] real time limit:	900 seconds
[runlim] space limit:		8000 MB
[runlim] argv[0]:		python3
[runlim] argv[1]:		-u
[runlim] argv[2]:		mip.py
[runlim] argv[3]:		TUD916.1
[runlim] start:			Sat Jan 17 04:08:15 2026
[runlim] main pid:		101232
Building MIP model...
[runlim] sample:		9.8 time, 11.0 real, 37.9 MB
[runlim] sample:		19.8 time, 21.0 real, 39.6 MB
[runlim] sample:		29.9 time, 31.0 real, 41.5 MB
[runlim] sample:		39.9 time, 41.0 real, 43.4 MB
[runlim] sample:		49.9 time, 51.0 real, 44.1 MB
[runlim] sample:		60.0 time, 61.0 real, 44.1 MB
[runlim] sample:		70.0 time, 71.0 real, 46.9 MB
[runlim] sample:		80.0 time, 81.0 real, 47.0 MB
[runlim] sample:		90.0 time, 91.0 real, 48.4 MB
[runlim] sample:		100.0 time, 101.0 real, 48.5 MB
[runlim] sample:		109.8 time, 111.0 real, 50.1 MB
[runlim] sample:		119.8 time, 121.0 real, 50.3 MB
[runlim] sample:		129.9 time, 131.0 real, 50.4 MB
[runlim] sample:		139.9 time, 141.0 real, 50.5 MB
[runlim] sample:		149.9 time, 151.0 real, 55.3 MB
[runlim] sample:		159.9 time, 161.0 real, 55.6 MB
[runlim] sample:		169.9 time, 171.0 real, 55.8 MB
[runlim] sample:		179.8 time, 181.0 real, 55.9 MB
[runlim] sample:		189.9 time, 191.0 real, 58.3 MB
[runlim] sample:		199.9 time, 201.0 real, 58.6 MB
[runlim] sample:		209.9 time, 211.0 real, 58.9 MB
[runlim] sample:		219.9 time, 221.0 real, 59.0 MB
[runlim] sample:		229.9 time, 231.0 real, 59.3 MB
[runlim] sample:		239.9 time, 241.0 real, 59.4 MB
[runlim] sample:		249.9 time, 251.0 real, 62.0 MB
[runlim] sample:		260.0 time, 261.0 real, 62.5 MB
[runlim] sample:		269.9 time, 271.0 real, 62.8 MB
[runlim] sample:		279.9 time, 281.0 real, 63.0 MB
[runlim] sample:		289.9 time, 291.0 real, 63.1 MB
[runlim] sample:		299.9 time, 301.0 real, 63.3 MB
[runlim] sample:		309.9 time, 311.0 real, 63.4 MB
[runlim] sample:		320.0 time, 321.0 real, 60.9 MB
[runlim] sample:		330.0 time, 331.0 real, 63.9 MB
[runlim] sample:		339.9 time, 341.0 real, 64.6 MB
[runlim] sample:		349.9 time, 351.0 real, 65.0 MB
[runlim] sample:		359.9 time, 361.0 real, 65.4 MB
[runlim] sample:		369.9 time, 371.0 real, 65.6 MB
[runlim] sample:		379.9 time, 381.0 real, 65.8 MB
[runlim] sample:		390.0 time, 391.0 real, 65.9 MB
[runlim] sample:		400.0 time, 401.0 real, 66.0 MB
[runlim] sample:		410.1 time, 411.0 real, 66.1 MB
[runlim] sample:		420.0 time, 421.0 real, 66.3 MB
[runlim] sample:		429.8 time, 431.0 real, 66.4 MB
[runlim] sample:		439.8 time, 441.0 real, 70.5 MB
[runlim] sample:		449.8 time, 451.0 real, 71.0 MB
Build time: 451.62s
Solving MIP (minimizing number of labels)...
Version identifier: 22.1.1.0 | 2022-11-28 | 9160aff4d
CPXPARAM_Read_DataCheck                          1
Legacy callback                                  i
Tried aggregator 2 times.
MIP Presolve eliminated 743648 rows and 488 columns.
MIP Presolve modified 85724 coefficients.
Aggregator did 17244 substitutions.
Reduced MIP has 54050 rows, 16804 columns, and 661549 nonzeros.
Reduced MIP has 16804 binaries, 0 generals, 0 SOSs, and 0 indicators.
Presolve time = 4.42 sec. (5522.68 ticks)
Probing fixed 250 vars, tightened 0 bounds.
Probing changed sense of 29 constraints.
Probing time = 0.06 sec. (22.34 ticks)
Tried aggregator 1 time.
Detecting symmetries...
MIP Presolve eliminated 218 rows and 260 columns.
MIP Presolve modified 5924 coefficients.
Reduced MIP has 53294 rows, 16544 columns, and 637283 nonzeros.
Reduced MIP has 16544 binaries, 0 generals, 0 SOSs, and 0 indicators.
Presolve time = 0.88 sec. (886.28 ticks)
Probing fixed 13 vars, tightened 0 bounds.
Probing time = 0.11 sec. (21.64 ticks)
Clique table members: 70389.
MIP emphasis: balance optimality and feasibility.
MIP search method: dynamic search.
Parallel mode: deterministic, using up to 12 threads.
[runlim] sample:		472.3 time, 461.0 real, 745.5 MB
[runlim] sample:		517.0 time, 471.0 real, 777.6 MB
[runlim] sample:		602.5 time, 481.0 real, 1509.6 MB
[runlim] sample:		701.7 time, 491.0 real, 1509.6 MB
[runlim] sample:		799.3 time, 501.0 real, 1509.7 MB
[runlim] sample:		898.5 time, 511.0 real, 1511.6 MB
[runlim] sample:		998.5 time, 521.0 real, 1511.6 MB
[runlim] sample:		1052.6 time, 531.0 real, 801.6 MB
[runlim] sample:		1081.7 time, 541.0 real, 801.7 MB
[runlim] sample:		1099.6 time, 551.0 real, 801.9 MB
Root relaxation solution time = 92.41 sec. (31901.69 ticks)

        Nodes                                         Cuts/
   Node  Left     Objective  IInf  Best Integer    Best Bound    ItCnt     Gap

*     0+    0                           48.0000        0.0000           100.00%
*     0+    0                           46.0000        0.0000           100.00%
*     0+    0                           44.0000        0.0000           100.00%
      0     0       18.0000  1756       44.0000       18.0000    32805   59.09%

========== NEW INCUMBENT SOLUTION ==========
{1: 708, 2: 470, 3: 764, 4: 526, 5: 708, 6: 470, 7: 540, 8: 778, 9: 254, 10: 16, 11: 680, 12: 442, 13: 380, 14: 142, 15: 708, 16: 470, 17: 142, 18: 380, 19: 142, 20: 380, 21: 142, 22: 380, 23: 470, 24: 708, 25: 72, 26: 310, 27: 708, 28: 470, 29: 478, 30: 240, 31: 680, 32: 442, 33: 142, 34: 380, 35: 764, 36: 526, 37: 456, 38: 694, 39: 72, 40: 310, 41: 680, 42: 442, 43: 792, 44: 554, 45: 310, 46: 72, 47: 428, 48: 666, 49: 442, 50: 680, 51: 680, 52: 442, 53: 142, 54: 380, 55: 72, 56: 310, 57: 142, 58: 380, 59: 72, 60: 310, 61: 16, 62: 254, 63: 170, 64: 408, 65: 408, 66: 170, 67: 470, 68: 708, 69: 680, 70: 442, 71: 44, 72: 282, 73: 708, 74: 470, 75: 792, 76: 554, 77: 792, 78: 554, 79: 414, 80: 652, 81: 442, 82: 680, 83: 708, 84: 470, 85: 142, 86: 380, 87: 736, 88: 498, 89: 680, 90: 442, 91: 142, 92: 380, 93: 778, 94: 540, 95: 142, 96: 380, 97: 540, 98: 778, 99: 708, 100: 470, 101: 442, 102: 680, 103: 442, 104: 680, 105: 722, 106: 484, 107: 708, 108: 470, 109: 778, 110: 540, 111: 142, 112: 380, 113: 708, 114: 470, 115: 680, 116: 442, 117: 72, 118: 310, 119: 380, 120: 142, 121: 170, 122: 408, 123: 554, 124: 792, 125: 680, 126: 442, 127: 296, 128: 58, 129: 240, 130: 478, 131: 680, 132: 442, 133: 652, 134: 414, 135: 170, 136: 408, 137: 72, 138: 310, 139: 680, 140: 442, 141: 408, 142: 170, 143: 442, 144: 680, 145: 708, 146: 470, 147: 170, 148: 408, 149: 30, 150: 268, 151: 142, 152: 380, 153: 764, 154: 526, 155: 792, 156: 554, 157: 442, 158: 680, 159: 100, 160: 338, 161: 142, 162: 380, 163: 16, 164: 254, 165: 470, 166: 708, 167: 72, 168: 310, 169: 652, 170: 414, 171: 366, 172: 128, 173: 652, 174: 414, 175: 310, 176: 72, 177: 442, 178: 680, 179: 778, 180: 540, 181: 380, 182: 142, 183: 268, 184: 30, 185: 408, 186: 170, 187: 72, 188: 310, 189: 142, 190: 380, 191: 708, 192: 470, 193: 540, 194: 778, 195: 142, 196: 380, 197: 498, 198: 736, 199: 652, 200: 414, 201: 554, 202: 792, 203: 792, 204: 554, 205: 540, 206: 778, 207: 680, 208: 442, 209: 554, 210: 792, 211: 408, 212: 170, 213: 142, 214: 380, 215: 268, 216: 30, 217: 72, 218: 310, 219: 708, 220: 470, 221: 680, 222: 442, 223: 170, 224: 408, 225: 652, 226: 414, 227: 470, 228: 708, 229: 666, 230: 428, 231: 72, 232: 310, 233: 540, 234: 778, 235: 470, 236: 708, 237: 652, 238: 414, 239: 86, 240: 324, 241: 512, 242: 750, 243: 764, 244: 526, 245: 652, 246: 414, 247: 170, 248: 408, 249: 792, 250: 554, 251: 338, 252: 100, 253: 142, 254: 380, 255: 792, 256: 554, 257: 652, 258: 414, 259: 778, 260: 540, 261: 310, 262: 72, 263: 310, 264: 72, 265: 408, 266: 170, 267: 72, 268: 310, 269: 366, 270: 128, 271: 414, 272: 652, 273: 142, 274: 380, 275: 484, 276: 722, 277: 30, 278: 268, 279: 792, 280: 554, 281: 254, 282: 16, 283: 792, 284: 554, 285: 680, 286: 442, 287: 380, 288: 142, 289: 428, 290: 666, 291: 680, 292: 442, 293: 380, 294: 142, 295: 554, 296: 792, 297: 16, 298: 254, 299: 16, 300: 254, 301: 652, 302: 414, 303: 680, 304: 442, 305: 764, 306: 526, 307: 310, 308: 72, 309: 554, 310: 792, 311: 324, 312: 86, 313: 792, 314: 554, 315: 170, 316: 408, 317: 680, 318: 442, 319: 408, 320: 170, 321: 268, 322: 30, 323: 470, 324: 708, 325: 142, 326: 380, 327: 408, 328: 170, 329: 142, 330: 380, 331: 666, 332: 428, 333: 380, 334: 142, 335: 792, 336: 554, 337: 484, 338: 722, 339: 470, 340: 708, 341: 764, 342: 526, 343: 680, 344: 442, 345: 72, 346: 310, 347: 30, 348: 268, 349: 708, 350: 470, 351: 414, 352: 652, 353: 170, 354: 408, 355: 680, 356: 442, 357: 680, 358: 442, 359: 708, 360: 470, 361: 58, 362: 296, 363: 680, 364: 442, 365: 554, 366: 792, 367: 778, 368: 540, 369: 268, 370: 30, 371: 170, 372: 408, 373: 666, 374: 428, 375: 708, 376: 470, 377: 282, 378: 44, 379: 310, 380: 72, 381: 170, 382: 408, 383: 254, 384: 16, 385: 680, 386: 442, 387: 408, 388: 170, 389: 30, 390: 268, 391: 764, 392: 526, 393: 778, 394: 540, 395: 792, 396: 554, 397: 680, 398: 442, 399: 170, 400: 408, 401: 16, 402: 254, 403: 792, 404: 554, 405: 408, 406: 170, 407: 380, 408: 142, 409: 142, 410: 380, 411: 792, 412: 554, 413: 142, 414: 380, 415: 792, 416: 554, 417: 778, 418: 540, 419: 442, 420: 680, 421: 764, 422: 526, 423: 470, 424: 708, 425: 708, 426: 470, 427: 750, 428: 512, 429: 540, 430: 778, 431: 792, 432: 554, 433: 708, 434: 470, 435: 512, 436: 750, 437: 72, 438: 310, 439: 470, 440: 708, 441: 170, 442: 408, 443: 470, 444: 708, 445: 408, 446: 170, 447: 142, 448: 380, 449: 666, 450: 428, 451: 128, 452: 366, 453: 478, 454: 240, 455: 680, 456: 442, 457: 694, 458: 456, 459: 680, 460: 442, 461: 540, 462: 778, 463: 456, 464: 694, 465: 16, 466: 254, 467: 324, 468: 86, 469: 44, 470: 282, 471: 708, 472: 470, 473: 442, 474: 680, 475: 792, 476: 554, 477: 58, 478: 296, 479: 792, 480: 554, 481: 554, 482: 792, 483: 128, 484: 366, 485: 142, 486: 380, 487: 722, 488: 484, 489: 408, 490: 170, 491: 652, 492: 414, 493: 380, 494: 142, 495: 268, 496: 30, 497: 16, 498: 254, 499: 268, 500: 30, 501: 792, 502: 554, 503: 778, 504: 540, 505: 414, 506: 652, 507: 310, 508: 72, 509: 16, 510: 254, 511: 442, 512: 680, 513: 254, 514: 16, 515: 324, 516: 86, 517: 142, 518: 380, 519: 170, 520: 408, 521: 708, 522: 470, 523: 380, 524: 142, 525: 408, 526: 170, 527: 296, 528: 58, 529: 240, 530: 478, 531: 142, 532: 380, 533: 72, 534: 310, 535: 680, 536: 442, 537: 142, 538: 380, 539: 414, 540: 652, 541: 268, 542: 30, 543: 72, 544: 310, 545: 268, 546: 30, 547: 142, 548: 380, 549: 254, 550: 16, 551: 142, 552: 380, 553: 750, 554: 512, 555: 142, 556: 380, 557: 792, 558: 554, 559: 792, 560: 554, 561: 310, 562: 72, 563: 16, 564: 254, 565: 254, 566: 16, 567: 470, 568: 708, 569: 470, 570: 708, 571: 484, 572: 722, 573: 478, 574: 240, 575: 478, 576: 240, 577: 526, 578: 764, 579: 442, 580: 680, 581: 554, 582: 792, 583: 708, 584: 470, 585: 554, 586: 792, 587: 128, 588: 366, 589: 72, 590: 310, 591: 792, 592: 554, 593: 100, 594: 338, 595: 470, 596: 708, 597: 170, 598: 408, 599: 792, 600: 554, 601: 736, 602: 498, 603: 16, 604: 254, 605: 554, 606: 792, 607: 554, 608: 792, 609: 254, 610: 16, 611: 338, 612: 100, 613: 380, 614: 142, 615: 16, 616: 254, 617: 708, 618: 470, 619: 72, 620: 310, 621: 554, 622: 792, 623: 708, 624: 470, 625: 72, 626: 310, 627: 380, 628: 142, 629: 792, 630: 554, 631: 540, 632: 778, 633: 414, 634: 652, 635: 554, 636: 792, 637: 512, 638: 750, 639: 792, 640: 554, 641: 366, 642: 128, 643: 100, 644: 338, 645: 792, 646: 554, 647: 142, 648: 380, 649: 254, 650: 16, 651: 254, 652: 16, 653: 680, 654: 442, 655: 652, 656: 414, 657: 750, 658: 512, 659: 366, 660: 128, 661: 470, 662: 708, 663: 554, 664: 792, 665: 680, 666: 442, 667: 254, 668: 16, 669: 128, 670: 366, 671: 380, 672: 142, 673: 170, 674: 408, 675: 680, 676: 442, 677: 792, 678: 554, 679: 414, 680: 652, 681: 142, 682: 380, 683: 708, 684: 470, 685: 680, 686: 442, 687: 652, 688: 414, 689: 366, 690: 128, 691: 694, 692: 456, 693: 778, 694: 540, 695: 736, 696: 498, 697: 366, 698: 128, 699: 652, 700: 414, 701: 652, 702: 414, 703: 708, 704: 470, 705: 414, 706: 652, 707: 680, 708: 442, 709: 652, 710: 414, 711: 736, 712: 498, 713: 72, 714: 310, 715: 470, 716: 708, 717: 72, 718: 310, 719: 100, 720: 338, 721: 708, 722: 470, 723: 666, 724: 428, 725: 16, 726: 254, 727: 254, 728: 16, 729: 456, 730: 694, 731: 254, 732: 16, 733: 30, 734: 268, 735: 554, 736: 792, 737: 540, 738: 778, 739: 16, 740: 254, 741: 16, 742: 254, 743: 484, 744: 722, 745: 282, 746: 44, 747: 142, 748: 380, 749: 792, 750: 554, 751: 470, 752: 708, 753: 100, 754: 338, 755: 750, 756: 512, 757: 526, 758: 764, 759: 554, 760: 792, 761: 470, 762: 708, 763: 722, 764: 484, 765: 324, 766: 86, 767: 142, 768: 380, 769: 736, 770: 498, 771: 16, 772: 254, 773: 456, 774: 694, 775: 736, 776: 498, 777: 680, 778: 442, 779: 58, 780: 296, 781: 414, 782: 652, 783: 680, 784: 442, 785: 764, 786: 526, 787: 442, 788: 680, 789: 16, 790: 254, 791: 652, 792: 414, 793: 16, 794: 254, 795: 72, 796: 310, 797: 736, 798: 498, 799: 666, 800: 428, 801: 44, 802: 282, 803: 554, 804: 792, 805: 666, 806: 428, 807: 142, 808: 380, 809: 680, 810: 442, 811: 310, 812: 72, 813: 44, 814: 282, 815: 72, 816: 310, 817: 324, 818: 86, 819: 708, 820: 470, 821: 652, 822: 414, 823: 470, 824: 708, 825: 736, 826: 498, 827: 44, 828: 282, 829: 16, 830: 254, 831: 778, 832: 540, 833: 30, 834: 268, 835: 100, 836: 338, 837: 736, 838: 498, 839: 72, 840: 310, 841: 86, 842: 324, 843: 554, 844: 792, 845: 652, 846: 414, 847: 652, 848: 414, 849: 722, 850: 484, 851: 764, 852: 526, 853: 16, 854: 254, 855: 86, 856: 324, 857: 792, 858: 554, 859: 554, 860: 792, 861: 792, 862: 554, 863: 540, 864: 778, 865: 86, 866: 324, 867: 128, 868: 366, 869: 540, 870: 778, 871: 324, 872: 86, 873: 30, 874: 268, 875: 694, 876: 456, 877: 86, 878: 324, 879: 282, 880: 44, 881: 380, 882: 142, 883: 100, 884: 338, 885: 414, 886: 652, 887: 86, 888: 324, 889: 142, 890: 380, 891: 694, 892: 456, 893: 652, 894: 414, 895: 680, 896: 442, 897: 554, 898: 792, 899: 16, 900: 254, 901: 16, 902: 254, 903: 778, 904: 540, 905: 526, 906: 764, 907: 296, 908: 58, 909: 694, 910: 456, 911: 282, 912: 44, 913: 680, 914: 442, 915: 750, 916: 512}
Number of labels used: 44
Total time: 550.76 sec
Memory: 782.75 MB
=============================================

========== NEW INCUMBENT SOLUTION ==========
{1: 708, 2: 470, 3: 764, 4: 526, 5: 708, 6: 470, 7: 540, 8: 778, 9: 254, 10: 16, 11: 680, 12: 442, 13: 380, 14: 142, 15: 708, 16: 470, 17: 142, 18: 380, 19: 142, 20: 380, 21: 142, 22: 380, 23: 470, 24: 708, 25: 72, 26: 310, 27: 708, 28: 470, 29: 478, 30: 240, 31: 680, 32: 442, 33: 142, 34: 380, 35: 764, 36: 526, 37: 456, 38: 694, 39: 72, 40: 310, 41: 680, 42: 442, 43: 792, 44: 554, 45: 310, 46: 72, 47: 428, 48: 666, 49: 442, 50: 680, 51: 680, 52: 442, 53: 142, 54: 380, 55: 72, 56: 310, 57: 142, 58: 380, 59: 72, 60: 310, 61: 16, 62: 254, 63: 170, 64: 408, 65: 408, 66: 170, 67: 470, 68: 708, 69: 680, 70: 442, 71: 44, 72: 282, 73: 708, 74: 470, 75: 792, 76: 554, 77: 792, 78: 554, 79: 414, 80: 652, 81: 442, 82: 680, 83: 708, 84: 470, 85: 142, 86: 380, 87: 736, 88: 498, 89: 680, 90: 442, 91: 142, 92: 380, 93: 778, 94: 540, 95: 142, 96: 380, 97: 540, 98: 778, 99: 708, 100: 470, 101: 442, 102: 680, 103: 442, 104: 680, 105: 722, 106: 484, 107: 708, 108: 470, 109: 778, 110: 540, 111: 142, 112: 380, 113: 708, 114: 470, 115: 680, 116: 442, 117: 72, 118: 310, 119: 380, 120: 142, 121: 170, 122: 408, 123: 554, 124: 792, 125: 680, 126: 442, 127: 296, 128: 58, 129: 240, 130: 478, 131: 680, 132: 442, 133: 652, 134: 414, 135: 170, 136: 408, 137: 72, 138: 310, 139: 680, 140: 442, 141: 408, 142: 170, 143: 442, 144: 680, 145: 708, 146: 470, 147: 170, 148: 408, 149: 30, 150: 268, 151: 142, 152: 380, 153: 764, 154: 526, 155: 792, 156: 554, 157: 442, 158: 680, 159: 100, 160: 338, 161: 142, 162: 380, 163: 16, 164: 254, 165: 470, 166: 708, 167: 72, 168: 310, 169: 652, 170: 414, 171: 366, 172: 128, 173: 652, 174: 414, 175: 310, 176: 72, 177: 442, 178: 680, 179: 778, 180: 540, 181: 380, 182: 142, 183: 268, 184: 30, 185: 408, 186: 170, 187: 72, 188: 310, 189: 142, 190: 380, 191: 708, 192: 470, 193: 540, 194: 778, 195: 142, 196: 380, 197: 498, 198: 736, 199: 652, 200: 414, 201: 554, 202: 792, 203: 792, 204: 554, 205: 540, 206: 778, 207: 680, 208: 442, 209: 554, 210: 792, 211: 408, 212: 170, 213: 142, 214: 380, 215: 268, 216: 30, 217: 72, 218: 310, 219: 708, 220: 470, 221: 680, 222: 442, 223: 170, 224: 408, 225: 652, 226: 414, 227: 470, 228: 708, 229: 666, 230: 428, 231: 72, 232: 310, 233: 540, 234: 778, 235: 470, 236: 708, 237: 652, 238: 414, 239: 86, 240: 324, 241: 512, 242: 750, 243: 764, 244: 526, 245: 652, 246: 414, 247: 170, 248: 408, 249: 792, 250: 554, 251: 338, 252: 100, 253: 142, 254: 380, 255: 792, 256: 554, 257: 652, 258: 414, 259: 778, 260: 540, 261: 310, 262: 72, 263: 310, 264: 72, 265: 408, 266: 170, 267: 72, 268: 310, 269: 366, 270: 128, 271: 414, 272: 652, 273: 142, 274: 380, 275: 484, 276: 722, 277: 30, 278: 268, 279: 792, 280: 554, 281: 254, 282: 16, 283: 792, 284: 554, 285: 680, 286: 442, 287: 380, 288: 142, 289: 428, 290: 666, 291: 680, 292: 442, 293: 380, 294: 142, 295: 554, 296: 792, 297: 16, 298: 254, 299: 16, 300: 254, 301: 652, 302: 414, 303: 680, 304: 442, 305: 764, 306: 526, 307: 310, 308: 72, 309: 554, 310: 792, 311: 324, 312: 86, 313: 792, 314: 554, 315: 170, 316: 408, 317: 680, 318: 442, 319: 408, 320: 170, 321: 268, 322: 30, 323: 470, 324: 708, 325: 142, 326: 380, 327: 408, 328: 170, 329: 142, 330: 380, 331: 666, 332: 428, 333: 380, 334: 142, 335: 792, 336: 554, 337: 484, 338: 722, 339: 470, 340: 708, 341: 764, 342: 526, 343: 680, 344: 442, 345: 72, 346: 310, 347: 30, 348: 268, 349: 708, 350: 470, 351: 414, 352: 652, 353: 170, 354: 408, 355: 680, 356: 442, 357: 680, 358: 442, 359: 708, 360: 470, 361: 58, 362: 296, 363: 680, 364: 442, 365: 554, 366: 792, 367: 778, 368: 540, 369: 268, 370: 30, 371: 170, 372: 408, 373: 666, 374: 428, 375: 708, 376: 470, 377: 282, 378: 44, 379: 310, 380: 72, 381: 170, 382: 408, 383: 254, 384: 16, 385: 680, 386: 442, 387: 408, 388: 170, 389: 30, 390: 268, 391: 764, 392: 526, 393: 778, 394: 540, 395: 792, 396: 554, 397: 680, 398: 442, 399: 170, 400: 408, 401: 16, 402: 254, 403: 792, 404: 554, 405: 408, 406: 170, 407: 380, 408: 142, 409: 142, 410: 380, 411: 792, 412: 554, 413: 142, 414: 380, 415: 792, 416: 554, 417: 778, 418: 540, 419: 442, 420: 680, 421: 764, 422: 526, 423: 470, 424: 708, 425: 708, 426: 470, 427: 750, 428: 512, 429: 540, 430: 778, 431: 792, 432: 554, 433: 708, 434: 470, 435: 512, 436: 750, 437: 72, 438: 310, 439: 470, 440: 708, 441: 170, 442: 408, 443: 470, 444: 708, 445: 408, 446: 170, 447: 142, 448: 380, 449: 666, 450: 428, 451: 128, 452: 366, 453: 478, 454: 240, 455: 680, 456: 442, 457: 694, 458: 456, 459: 680, 460: 442, 461: 540, 462: 778, 463: 456, 464: 694, 465: 16, 466: 254, 467: 324, 468: 86, 469: 44, 470: 282, 471: 708, 472: 470, 473: 442, 474: 680, 475: 792, 476: 554, 477: 58, 478: 296, 479: 792, 480: 554, 481: 554, 482: 792, 483: 128, 484: 366, 485: 142, 486: 380, 487: 722, 488: 484, 489: 408, 490: 170, 491: 652, 492: 414, 493: 380, 494: 142, 495: 268, 496: 30, 497: 16, 498: 254, 499: 268, 500: 30, 501: 792, 502: 554, 503: 778, 504: 540, 505: 414, 506: 652, 507: 310, 508: 72, 509: 16, 510: 254, 511: 442, 512: 680, 513: 254, 514: 16, 515: 324, 516: 86, 517: 142, 518: 380, 519: 170, 520: 408, 521: 708, 522: 470, 523: 380, 524: 142, 525: 408, 526: 170, 527: 296, 528: 58, 529: 240, 530: 478, 531: 142, 532: 380, 533: 72, 534: 310, 535: 680, 536: 442, 537: 142, 538: 380, 539: 414, 540: 652, 541: 268, 542: 30, 543: 72, 544: 310, 545: 268, 546: 30, 547: 142, 548: 380, 549: 254, 550: 16, 551: 142, 552: 380, 553: 750, 554: 512, 555: 142, 556: 380, 557: 792, 558: 554, 559: 792, 560: 554, 561: 310, 562: 72, 563: 16, 564: 254, 565: 254, 566: 16, 567: 470, 568: 708, 569: 470, 570: 708, 571: 484, 572: 722, 573: 478, 574: 240, 575: 478, 576: 240, 577: 526, 578: 764, 579: 442, 580: 680, 581: 554, 582: 792, 583: 708, 584: 470, 585: 554, 586: 792, 587: 128, 588: 366, 589: 72, 590: 310, 591: 792, 592: 554, 593: 100, 594: 338, 595: 470, 596: 708, 597: 170, 598: 408, 599: 792, 600: 554, 601: 736, 602: 498, 603: 16, 604: 254, 605: 554, 606: 792, 607: 554, 608: 792, 609: 254, 610: 16, 611: 338, 612: 100, 613: 380, 614: 142, 615: 16, 616: 254, 617: 708, 618: 470, 619: 72, 620: 310, 621: 554, 622: 792, 623: 708, 624: 470, 625: 72, 626: 310, 627: 380, 628: 142, 629: 792, 630: 554, 631: 540, 632: 778, 633: 414, 634: 652, 635: 554, 636: 792, 637: 512, 638: 750, 639: 792, 640: 554, 641: 366, 642: 128, 643: 100, 644: 338, 645: 792, 646: 554, 647: 142, 648: 380, 649: 254, 650: 16, 651: 254, 652: 16, 653: 680, 654: 442, 655: 652, 656: 414, 657: 750, 658: 512, 659: 366, 660: 128, 661: 470, 662: 708, 663: 554, 664: 792, 665: 680, 666: 442, 667: 254, 668: 16, 669: 128, 670: 366, 671: 380, 672: 142, 673: 170, 674: 408, 675: 680, 676: 442, 677: 792, 678: 554, 679: 414, 680: 652, 681: 142, 682: 380, 683: 708, 684: 470, 685: 680, 686: 442, 687: 652, 688: 414, 689: 366, 690: 128, 691: 694, 692: 456, 693: 778, 694: 540, 695: 736, 696: 498, 697: 366, 698: 128, 699: 652, 700: 414, 701: 652, 702: 414, 703: 708, 704: 470, 705: 414, 706: 652, 707: 680, 708: 442, 709: 652, 710: 414, 711: 736, 712: 498, 713: 72, 714: 310, 715: 470, 716: 708, 717: 72, 718: 310, 719: 100, 720: 338, 721: 708, 722: 470, 723: 666, 724: 428, 725: 16, 726: 254, 727: 254, 728: 16, 729: 456, 730: 694, 731: 254, 732: 16, 733: 30, 734: 268, 735: 554, 736: 792, 737: 540, 738: 778, 739: 16, 740: 254, 741: 16, 742: 254, 743: 484, 744: 722, 745: 282, 746: 44, 747: 142, 748: 380, 749: 792, 750: 554, 751: 470, 752: 708, 753: 100, 754: 338, 755: 750, 756: 512, 757: 526, 758: 764, 759: 554, 760: 792, 761: 470, 762: 708, 763: 722, 764: 484, 765: 324, 766: 86, 767: 142, 768: 380, 769: 736, 770: 498, 771: 16, 772: 254, 773: 456, 774: 694, 775: 736, 776: 498, 777: 680, 778: 442, 779: 58, 780: 296, 781: 414, 782: 652, 783: 680, 784: 442, 785: 764, 786: 526, 787: 442, 788: 680, 789: 16, 790: 254, 791: 652, 792: 414, 793: 16, 794: 254, 795: 72, 796: 310, 797: 736, 798: 498, 799: 666, 800: 428, 801: 44, 802: 282, 803: 554, 804: 792, 805: 666, 806: 428, 807: 142, 808: 380, 809: 680, 810: 442, 811: 310, 812: 72, 813: 44, 814: 282, 815: 72, 816: 310, 817: 324, 818: 86, 819: 708, 820: 470, 821: 652, 822: 414, 823: 470, 824: 708, 825: 736, 826: 498, 827: 44, 828: 282, 829: 16, 830: 254, 831: 778, 832: 540, 833: 30, 834: 268, 835: 100, 836: 338, 837: 736, 838: 498, 839: 72, 840: 310, 841: 86, 842: 324, 843: 554, 844: 792, 845: 652, 846: 414, 847: 652, 848: 414, 849: 722, 850: 484, 851: 764, 852: 526, 853: 16, 854: 254, 855: 86, 856: 324, 857: 792, 858: 554, 859: 554, 860: 792, 861: 792, 862: 554, 863: 540, 864: 778, 865: 86, 866: 324, 867: 128, 868: 366, 869: 540, 870: 778, 871: 324, 872: 86, 873: 30, 874: 268, 875: 694, 876: 456, 877: 86, 878: 324, 879: 282, 880: 44, 881: 380, 882: 142, 883: 100, 884: 338, 885: 414, 886: 652, 887: 86, 888: 324, 889: 142, 890: 380, 891: 694, 892: 456, 893: 652, 894: 414, 895: 680, 896: 442, 897: 554, 898: 792, 899: 16, 900: 254, 901: 16, 902: 254, 903: 778, 904: 540, 905: 526, 906: 764, 907: 296, 908: 58, 909: 694, 910: 456, 911: 282, 912: 44, 913: 680, 914: 442, 915: 750, 916: 512}
Number of labels used: 44
Total time: 550.78 sec
Memory: 782.75 MB
=============================================
[runlim] sample:		1118.8 time, 561.0 real, 886.2 MB
[runlim] sample:		1138.7 time, 571.0 real, 906.4 MB
[runlim] sample:		1158.8 time, 581.0 real, 908.8 MB
[runlim] sample:		1179.0 time, 591.0 real, 908.8 MB
[runlim] sample:		1199.0 time, 601.0 real, 908.8 MB
[runlim] sample:		1218.9 time, 611.0 real, 908.8 MB
[runlim] sample:		1238.9 time, 621.0 real, 911.8 MB
[runlim] sample:		1258.5 time, 631.0 real, 913.1 MB
[runlim] sample:		1278.7 time, 641.0 real, 913.6 MB
[runlim] sample:		1298.8 time, 651.0 real, 914.1 MB
[runlim] sample:		1318.6 time, 661.0 real, 914.5 MB
[runlim] sample:		1338.7 time, 671.0 real, 914.9 MB
[runlim] sample:		1358.8 time, 681.0 real, 915.1 MB
[runlim] sample:		1378.7 time, 691.0 real, 915.4 MB
[runlim] sample:		1398.6 time, 701.0 real, 915.5 MB
[runlim] sample:		1418.7 time, 711.0 real, 915.9 MB
[runlim] sample:		1438.7 time, 721.0 real, 915.9 MB
[runlim] sample:		1458.6 time, 731.0 real, 916.1 MB
[runlim] sample:		1478.7 time, 741.0 real, 916.5 MB
[runlim] sample:		1498.9 time, 751.0 real, 916.5 MB
[runlim] sample:		1518.7 time, 761.0 real, 916.6 MB
[runlim] sample:		1538.7 time, 771.0 real, 916.6 MB
[runlim] sample:		1558.8 time, 781.0 real, 916.8 MB
[runlim] sample:		1578.7 time, 791.0 real, 916.9 MB
[runlim] sample:		1598.7 time, 801.0 real, 917.0 MB
[runlim] sample:		1618.8 time, 811.0 real, 917.0 MB
[runlim] sample:		1638.7 time, 821.0 real, 917.0 MB
[runlim] sample:		1658.7 time, 831.0 real, 917.1 MB
[runlim] sample:		1678.8 time, 841.0 real, 917.1 MB
[runlim] sample:		1698.8 time, 851.0 real, 917.1 MB
[runlim] sample:		1718.7 time, 861.0 real, 917.1 MB
[runlim] sample:		1738.7 time, 871.0 real, 917.2 MB
[runlim] sample:		1758.8 time, 881.0 real, 917.2 MB
[runlim] sample:		1778.7 time, 891.0 real, 917.2 MB
[runlim] end:			Sat Jan 17 04:23:15 2026
[runlim] status:		out of time
[runlim] result:		2
[runlim] children:		0
[runlim] real:			900.12 seconds
[runlim] time:			1796.89 seconds
[runlim] space:			1511.6 MB
[runlim] samples:		8991
